15
0 30 45 69 21 73 37 47 66 35 69 36 79 63 14 
36 0 39 83 76 43 12 99 85 75 23 78 52 13 90 
37 100 0 88 31 74 33 35 36 35 11 89 83 73 72 
83 14 55 0 79 60 33 94 26 92 47 41 75 11 38 
44 3 23 95 0 90 18 77 21 63 79 32 1 15 67 
3 94 29 80 3 0 58 79 12 99 4 27 73 100 44 
73 60 24 92 73 21 0 55 88 47 85 56 92 49 94 
24 52 89 10 69 80 52 0 75 29 5 3 42 1 9 
48 75 59 82 78 47 85 33 0 12 91 57 20 4 80 
46 44 84 11 68 81 49 15 15 0 90 90 37 84 37 
46 68 56 94 62 41 25 95 30 84 0 11 41 47 48 
99 1 36 23 10 13 23 22 79 56 75 0 67 10 2 
63 99 92 49 13 31 66 81 8 9 79 90 0 16 29 
24 96 32 25 19 82 80 11 56 31 91 74 6 0 65 
66 94 4 30 59 89 66 17 64 78 47 16 32 7 0 
